p cnf 235 633
e 1 2 3 0
a 4 5 6 0
e 7 8 9 0
a 10 11 12 0
e 13 14 15 31 32 33 34 35 36 37 38 39 0
a 16 17 18 0
e 19 20 21 22 23 24 25 26 27 28 29 30 40 41 42 0
e 43 44 45 46 47 48 49 50 51 52 53 54 55 56 57 58 59 60 61 62 63 64 65 66 67 68 69 70 71 72 73 74 75 76 77 78 79 80 81 82 83 84 85 86 87 88 89 90 91 92 93 94 95 96 97 98 99 100 101 102 103 104 105 106 107 108 109 110 111 112 113 114 115 116 117 118 119 120 121 122 123 124 125 126 127 128 129 130 131 132 133 134 135 136 137 138 139 140 141 142 143 144 145 146 147 148 149 150 151 152 153 154 155 156 157 158 159 160 161 162 163 164 165 166 167 168 169 170 171 172 173 174 175 176 177 178 179 180 181 182 183 184 185 186 187 188 189 190 191 192 193 194 195 196 197 198 199 200 201 202 203 204 205 206 207 208 209 210 211 212 213 214 215 216 217 218 219 220 221 222 223 224 225 226 227 228 229 230 231 232 233 234 235 0
1 43 0
-16 43 0
-1 16 -43 0
16 44 0
-1 44 0
-16 1 -44 0
43 -45 0
44 -45 0
-43 -44 45 0
2 46 0
-17 46 0
-2 17 -46 0
17 47 0
-2 47 0
-17 2 -47 0
46 -48 0
47 -48 0
-46 -47 48 0
3 49 0
-18 49 0
-3 18 -49 0
18 50 0
-3 50 0
-18 3 -50 0
49 -51 0
50 -51 0
-49 -50 51 0
45 -52 0
48 -52 0
51 -52 0
-45 -48 -51 52 0
-19 -53 0
21 -53 0
-22 -53 0
19 -21 22 53 0
52 54 0
-53 54 0
-52 53 -54 0
19 55 0
-21 55 0
-19 21 -55 0
21 56 0
-19 56 0
-21 19 -56 0
55 -57 0
56 -57 0
-55 -56 57 0
20 58 0
-22 58 0
-20 22 -58 0
22 59 0
-20 59 0
-22 20 -59 0
58 -60 0
59 -60 0
-58 -59 60 0
57 -61 0
60 -61 0
-57 -60 61 0
-52 62 0
-61 62 0
52 61 -62 0
4 63 0
-16 63 0
-4 16 -63 0
16 64 0
-4 64 0
-16 4 -64 0
63 -65 0
64 -65 0
-63 -64 65 0
5 66 0
-17 66 0
-5 17 -66 0
17 67 0
-5 67 0
-17 5 -67 0
66 -68 0
67 -68 0
-66 -67 68 0
6 69 0
-18 69 0
-6 18 -69 0
18 70 0
-6 70 0
-18 6 -70 0
69 -71 0
70 -71 0
-69 -70 71 0
65 -72 0
68 -72 0
71 -72 0
-65 -68 -71 72 0
72 -73 0
-21 -73 0
-72 21 73 0
23 -74 0
24 -74 0
-23 -24 74 0
73 75 0
-74 75 0
-73 74 -75 0
21 76 0
-23 76 0
-21 23 -76 0
23 77 0
-21 77 0
-23 21 -77 0
76 -78 0
77 -78 0
-76 -77 78 0
22 79 0
-24 79 0
-22 24 -79 0
24 80 0
-22 80 0
-24 22 -80 0
79 -81 0
80 -81 0
-79 -80 81 0
78 -82 0
81 -82 0
-78 -81 82 0
-73 83 0
-82 83 0
73 82 -83 0
7 84 0
-16 84 0
-7 16 -84 0
16 85 0
-7 85 0
-16 7 -85 0
84 -86 0
85 -86 0
-84 -85 86 0
8 87 0
-17 87 0
-8 17 -87 0
17 88 0
-8 88 0
-17 8 -88 0
87 -89 0
88 -89 0
-87 -88 89 0
9 90 0
-18 90 0
-9 18 -90 0
18 91 0
-9 91 0
-18 9 -91 0
90 -92 0
91 -92 0
-90 -91 92 0
86 -93 0
89 -93 0
92 -93 0
-86 -89 -92 93 0
-23 -94 0
25 -94 0
-26 -94 0
23 -25 26 94 0
93 95 0
-94 95 0
-93 94 -95 0
23 96 0
-25 96 0
-23 25 -96 0
25 97 0
-23 97 0
-25 23 -97 0
96 -98 0
97 -98 0
-96 -97 98 0
24 99 0
-26 99 0
-24 26 -99 0
26 100 0
-24 100 0
-26 24 -100 0
99 -101 0
100 -101 0
-99 -100 101 0
98 -102 0
101 -102 0
-98 -101 102 0
-93 103 0
-102 103 0
93 102 -103 0
10 104 0
-16 104 0
-10 16 -104 0
16 105 0
-10 105 0
-16 10 -105 0
104 -106 0
105 -106 0
-104 -105 106 0
11 107 0
-17 107 0
-11 17 -107 0
17 108 0
-11 108 0
-17 11 -108 0
107 -109 0
108 -109 0
-107 -108 109 0
12 110 0
-18 110 0
-12 18 -110 0
18 111 0
-12 111 0
-18 12 -111 0
110 -112 0
111 -112 0
-110 -111 112 0
106 -113 0
109 -113 0
112 -113 0
-106 -109 -112 113 0
113 -114 0
-25 -114 0
-113 25 114 0
27 -115 0
28 -115 0
-27 -28 115 0
114 116 0
-115 116 0
-114 115 -116 0
25 117 0
-27 117 0
-25 27 -117 0
27 118 0
-25 118 0
-27 25 -118 0
117 -119 0
118 -119 0
-117 -118 119 0
26 120 0
-28 120 0
-26 28 -120 0
28 121 0
-26 121 0
-28 26 -121 0
120 -122 0
121 -122 0
-120 -121 122 0
119 -123 0
122 -123 0
-119 -122 123 0
-114 124 0
-123 124 0
114 123 -124 0
13 125 0
-16 125 0
-13 16 -125 0
16 126 0
-13 126 0
-16 13 -126 0
125 -127 0
126 -127 0
-125 -126 127 0
14 128 0
-17 128 0
-14 17 -128 0
17 129 0
-14 129 0
-17 14 -129 0
128 -130 0
129 -130 0
-128 -129 130 0
15 131 0
-18 131 0
-15 18 -131 0
18 132 0
-15 132 0
-18 15 -132 0
131 -133 0
132 -133 0
-131 -132 133 0
127 -134 0
130 -134 0
133 -134 0
-127 -130 -133 134 0
-27 -135 0
29 -135 0
-30 -135 0
27 -29 30 135 0
134 136 0
-135 136 0
-134 135 -136 0
27 137 0
-29 137 0
-27 29 -137 0
29 138 0
-27 138 0
-29 27 -138 0
137 -139 0
138 -139 0
-137 -138 139 0
28 140 0
-30 140 0
-28 30 -140 0
30 141 0
-28 141 0
-30 28 -141 0
140 -142 0
141 -142 0
-140 -141 142 0
139 -143 0
142 -143 0
-139 -142 143 0
-134 144 0
-143 144 0
134 143 -144 0
54 -145 0
62 -145 0
75 -145 0
83 -145 0
95 -145 0
103 -145 0
116 -145 0
124 -145 0
136 -145 0
144 -145 0
-54 -62 -75 -83 -95 -103 -116 -124 -136 -144 145 0
-16 -146 0
-17 -146 0
-18 -146 0
16 17 18 146 0
-40 -147 0
41 -147 0
-42 -147 0
40 -41 42 147 0
-40 -148 0
-41 -148 0
42 -148 0
40 41 -42 148 0
-147 149 0
-148 149 0
147 148 -149 0
146 150 0
-149 150 0
-146 149 -150 0
-16 -151 0
-17 -151 0
18 -151 0
16 17 -18 151 0
151 152 0
-148 152 0
-151 148 -152 0
-16 -153 0
17 -153 0
-18 -153 0
16 -17 18 153 0
-40 -154 0
-41 -154 0
-42 -154 0
40 41 42 154 0
-40 -155 0
41 -155 0
42 -155 0
40 -41 -42 155 0
40 -156 0
-41 -156 0
-42 -156 0
-40 41 42 156 0
-154 157 0
-155 157 0
-148 157 0
-156 157 0
154 155 148 156 -157 0
153 158 0
-157 158 0
-153 157 -158 0
-16 -159 0
17 -159 0
18 -159 0
16 -17 -18 159 0
159 160 0
-155 160 0
-159 155 -160 0
16 -161 0
-17 -161 0
-18 -161 0
-16 17 18 161 0
161 162 0
-147 162 0
-161 147 -162 0
31 163 0
-16 163 0
-31 16 -163 0
16 164 0
-31 164 0
-16 31 -164 0
163 -165 0
164 -165 0
-163 -164 165 0
32 166 0
-17 166 0
-32 17 -166 0
17 167 0
-32 167 0
-17 32 -167 0
166 -168 0
167 -168 0
-166 -167 168 0
33 169 0
-18 169 0
-33 18 -169 0
18 170 0
-33 170 0
-18 33 -170 0
169 -171 0
170 -171 0
-169 -170 171 0
165 -172 0
168 -172 0
171 -172 0
-165 -168 -171 172 0
34 173 0
-40 173 0
-34 40 -173 0
40 174 0
-34 174 0
-40 34 -174 0
173 -175 0
174 -175 0
-173 -174 175 0
35 176 0
-41 176 0
-35 41 -176 0
41 177 0
-35 177 0
-41 35 -177 0
176 -178 0
177 -178 0
-176 -177 178 0
36 179 0
-42 179 0
-36 42 -179 0
42 180 0
-36 180 0
-42 36 -180 0
179 -181 0
180 -181 0
-179 -180 181 0
175 -182 0
178 -182 0
181 -182 0
-175 -178 -181 182 0
172 183 0
-182 183 0
-172 182 -183 0
29 -184 0
-30 -184 0
-29 30 184 0
172 185 0
-184 185 0
-172 184 -185 0
34 186 0
-16 186 0
-34 16 -186 0
16 187 0
-34 187 0
-16 34 -187 0
186 -188 0
187 -188 0
-186 -187 188 0
35 189 0
-17 189 0
-35 17 -189 0
17 190 0
-35 190 0
-17 35 -190 0
189 -191 0
190 -191 0
-189 -190 191 0
36 192 0
-18 192 0
-36 18 -192 0
18 193 0
-36 193 0
-18 36 -193 0
192 -194 0
193 -194 0
-192 -193 194 0
188 -195 0
191 -195 0
194 -195 0
-188 -191 -194 195 0
37 196 0
-40 196 0
-37 40 -196 0
40 197 0
-37 197 0
-40 37 -197 0
196 -198 0
197 -198 0
-196 -197 198 0
38 199 0
-41 199 0
-38 41 -199 0
41 200 0
-38 200 0
-41 38 -200 0
199 -201 0
200 -201 0
-199 -200 201 0
39 202 0
-42 202 0
-39 42 -202 0
42 203 0
-39 203 0
-42 39 -203 0
202 -204 0
203 -204 0
-202 -203 204 0
198 -205 0
201 -205 0
204 -205 0
-198 -201 -204 205 0
195 206 0
-205 206 0
-195 205 -206 0
195 207 0
-184 207 0
-195 184 -207 0
37 208 0
-16 208 0
-37 16 -208 0
16 209 0
-37 209 0
-16 37 -209 0
208 -210 0
209 -210 0
-208 -209 210 0
38 211 0
-17 211 0
-38 17 -211 0
17 212 0
-38 212 0
-17 38 -212 0
211 -213 0
212 -213 0
-211 -212 213 0
39 214 0
-18 214 0
-39 18 -214 0
18 215 0
-39 215 0
-18 39 -215 0
214 -216 0
215 -216 0
-214 -215 216 0
210 -217 0
213 -217 0
216 -217 0
-210 -213 -216 217 0
217 218 0
-184 218 0
-217 184 -218 0
-31 -219 0
-32 -219 0
-33 -219 0
31 32 33 219 0
31 -220 0
-32 -220 0
-33 -220 0
-31 32 33 220 0
-219 221 0
-220 221 0
219 220 -221 0
-37 -222 0
-38 -222 0
39 -222 0
37 38 -39 222 0
-37 -223 0
38 -223 0
39 -223 0
37 -38 -39 223 0
-222 224 0
-223 224 0
222 223 -224 0
150 -225 0
152 -225 0
158 -225 0
160 -225 0
162 -225 0
183 -225 0
185 -225 0
206 -225 0
207 -225 0
218 -225 0
221 -225 0
224 -225 0
-150 -152 -158 -160 -162 -183 -185 -206 -207 -218 -221 -224 225 0
1 -226 0
-2 -226 0
-3 -226 0
-1 2 3 226 0
1 227 0
-226 227 0
-1 226 -227 0
7 -228 0
-8 -228 0
-9 -228 0
-7 8 9 228 0
7 229 0
-228 229 0
-7 228 -229 0
13 -230 0
-14 -230 0
-15 -230 0
-13 14 15 230 0
13 231 0
-230 231 0
-13 230 -231 0
227 -232 0
229 -232 0
231 -232 0
-227 -229 -231 232 0
16 233 0
-161 233 0
-16 161 -233 0
232 -234 0
-19 -234 0
145 -234 0
225 -234 0
-232 19 -145 -225 234 0
233 235 0
-234 235 0
-233 234 -235 0
235 0

